\Problem name: compact

Minimize
OBJROW: C
Subject To
ord(0,1):  - x(0,1) + x(0,2) >= 7
ord(0,2):  x(0,0) - x(0,2) >= 7
ord(1,1):  x(1,0) - x(1,1) >= 4
ord(1,2):  - x(1,0) + x(1,2) >= 3
ord(2,1):  - x(2,1) + x(2,2) >= 7
ord(2,2):  x(2,0) - x(2,2) >= 6
triangle2(0,1,0):  y(0,1,0) + y(1,0,0) = 1
triangle2(0,1,1):  y(0,1,1) + y(1,0,1) = 1
triangle2(0,1,2):  y(0,1,2) + y(1,0,2) = 1
triangle2(0,2,0):  y(0,2,0) + y(2,0,0) = 1
triangle2(0,2,1):  y(0,2,1) + y(2,0,1) = 1
triangle2(0,2,2):  y(0,2,2) + y(2,0,2) = 1
triangle2(1,2,0):  y(1,2,0) + y(2,1,0) = 1
triangle2(1,2,1):  y(1,2,1) + y(2,1,1) = 1
triangle2(1,2,2):  y(1,2,2) + y(2,1,2) = 1
MCLinV(0,1,0):  - x(0,0) + v(0,1,0)p - v(0,1,0)n + x(1,0) = -3
MCLinV(1,0,0):  x(0,0) + v(1,0,0)p - v(1,0,0)n - x(1,0) = -1
MCLin1(0,1,0):  u(0,1,0)p - u(0,1,0)n >= 0
MCLin2(0,1,0):  23 y(1,0,0) + u(0,1,0)p - u(0,1,0)n >= 0
MCLin3(0,1,0):  -36 y(1,0,0) - v(0,1,0)p + v(0,1,0)n + u(0,1,0)p - u(0,1,0)n >= -36
MCLin4(0,1,0):  -36 y(1,0,0) + u(0,1,0)p - u(0,1,0)n <= 0
MCLin5(0,1,0):  23 y(1,0,0) - v(0,1,0)p + v(0,1,0)n + u(0,1,0)p - u(0,1,0)n <= 23
MCLin6(1,0,0):  u(1,0,0)p - u(1,0,0)n >= 0
MCLin7(1,0,0):  40 y(0,1,0) + u(1,0,0)p - u(1,0,0)n >= 0
MCLin8(1,0,0):  -19 y(0,1,0) - v(1,0,0)p + v(1,0,0)n + u(1,0,0)p - u(1,0,0)n >= -19
MCLin9(1,0,0):  -19 y(0,1,0) + u(1,0,0)p - u(1,0,0)n <= 0
MCLin10(1,0,0):  40 y(0,1,0) - v(1,0,0)p + v(1,0,0)n + u(1,0,0)p - u(1,0,0)n <= 40
MCLinV(0,1,1):  - x(0,1) + v(0,1,1)p - v(0,1,1)n + x(1,1) = -4
MCLinV(1,0,1):  x(0,1) + v(1,0,1)p - v(1,0,1)n - x(1,1) = -7
MCLin1(0,1,1):  u(0,1,1)p - u(0,1,1)n >= 0
MCLin2(0,1,1):  34 y(1,0,1) + u(0,1,1)p - u(0,1,1)n >= 0
MCLin3(0,1,1):  -25 y(1,0,1) - v(0,1,1)p + v(0,1,1)n + u(0,1,1)p - u(0,1,1)n >= -25
MCLin4(0,1,1):  -25 y(1,0,1) + u(0,1,1)p - u(0,1,1)n <= 0
MCLin5(0,1,1):  34 y(1,0,1) - v(0,1,1)p + v(0,1,1)n + u(0,1,1)p - u(0,1,1)n <= 34
MCLin6(1,0,1):  u(1,0,1)p - u(1,0,1)n >= 0
MCLin7(1,0,1):  36 y(0,1,1) + u(1,0,1)p - u(1,0,1)n >= 0
MCLin8(1,0,1):  -23 y(0,1,1) - v(1,0,1)p + v(1,0,1)n + u(1,0,1)p - u(1,0,1)n >= -23
MCLin9(1,0,1):  -23 y(0,1,1) + u(1,0,1)p - u(1,0,1)n <= 0
MCLin10(1,0,1):  36 y(0,1,1) - v(1,0,1)p + v(1,0,1)n + u(1,0,1)p - u(1,0,1)n <= 36
MCLinV(0,1,2):  - x(0,2) + v(0,1,2)p - v(0,1,2)n + x(1,2) = -7
MCLinV(1,0,2):  x(0,2) + v(1,0,2)p - v(1,0,2)n - x(1,2) = -7
MCLin1(0,1,2):  u(0,1,2)p - u(0,1,2)n >= 0
MCLin2(0,1,2):  37 y(1,0,2) + u(0,1,2)p - u(0,1,2)n >= 0
MCLin3(0,1,2):  -22 y(1,0,2) - v(0,1,2)p + v(0,1,2)n + u(0,1,2)p - u(0,1,2)n >= -22
MCLin4(0,1,2):  -22 y(1,0,2) + u(0,1,2)p - u(0,1,2)n <= 0
MCLin5(0,1,2):  37 y(1,0,2) - v(0,1,2)p + v(0,1,2)n + u(0,1,2)p - u(0,1,2)n <= 37
MCLin6(1,0,2):  u(1,0,2)p - u(1,0,2)n >= 0
MCLin7(1,0,2):  36 y(0,1,2) + u(1,0,2)p - u(1,0,2)n >= 0
MCLin8(1,0,2):  -23 y(0,1,2) - v(1,0,2)p + v(1,0,2)n + u(1,0,2)p - u(1,0,2)n >= -23
MCLin9(1,0,2):  -23 y(0,1,2) + u(1,0,2)p - u(1,0,2)n <= 0
MCLin10(1,0,2):  36 y(0,1,2) - v(1,0,2)p + v(1,0,2)n + u(1,0,2)p - u(1,0,2)n <= 36
MCLinV(0,2,0):  - x(0,0) + v(0,2,0)p - v(0,2,0)n + x(2,0) = -2
MCLinV(2,0,0):  x(0,0) + v(2,0,0)p - v(2,0,0)n - x(2,0) = -1
MCLin1(0,2,0):  u(0,2,0)p - u(0,2,0)n >= 0
MCLin2(0,2,0):  30 y(2,0,0) + u(0,2,0)p - u(0,2,0)n >= 0
MCLin3(0,2,0):  -28 y(2,0,0) - v(0,2,0)p + v(0,2,0)n + u(0,2,0)p - u(0,2,0)n >= -28
MCLin4(0,2,0):  -28 y(2,0,0) + u(0,2,0)p - u(0,2,0)n <= 0
MCLin5(0,2,0):  30 y(2,0,0) - v(0,2,0)p + v(0,2,0)n + u(0,2,0)p - u(0,2,0)n <= 30
MCLin6(2,0,0):  u(2,0,0)p - u(2,0,0)n >= 0
MCLin7(2,0,0):  31 y(0,2,0) + u(2,0,0)p - u(2,0,0)n >= 0
MCLin8(2,0,0):  -27 y(0,2,0) - v(2,0,0)p + v(2,0,0)n + u(2,0,0)p - u(2,0,0)n >= -27
MCLin9(2,0,0):  -27 y(0,2,0) + u(2,0,0)p - u(2,0,0)n <= 0
MCLin10(2,0,0):  31 y(0,2,0) - v(2,0,0)p + v(2,0,0)n + u(2,0,0)p - u(2,0,0)n <= 31
MCLinV(0,2,1):  - x(0,1) + v(0,2,1)p - v(0,2,1)n + x(2,1) = -7
MCLinV(2,0,1):  x(0,1) + v(2,0,1)p - v(2,0,1)n - x(2,1) = -7
MCLin1(0,2,1):  u(0,2,1)p - u(0,2,1)n >= 0
MCLin2(0,2,1):  36 y(2,0,1) + u(0,2,1)p - u(0,2,1)n >= 0
MCLin3(0,2,1):  -22 y(2,0,1) - v(0,2,1)p + v(0,2,1)n + u(0,2,1)p - u(0,2,1)n >= -22
MCLin4(0,2,1):  -22 y(2,0,1) + u(0,2,1)p - u(0,2,1)n <= 0
MCLin5(0,2,1):  36 y(2,0,1) - v(0,2,1)p + v(0,2,1)n + u(0,2,1)p - u(0,2,1)n <= 36
MCLin6(2,0,1):  u(2,0,1)p - u(2,0,1)n >= 0
MCLin7(2,0,1):  36 y(0,2,1) + u(2,0,1)p - u(2,0,1)n >= 0
MCLin8(2,0,1):  -22 y(0,2,1) - v(2,0,1)p + v(2,0,1)n + u(2,0,1)p - u(2,0,1)n >= -22
MCLin9(2,0,1):  -22 y(0,2,1) + u(2,0,1)p - u(2,0,1)n <= 0
MCLin10(2,0,1):  36 y(0,2,1) - v(2,0,1)p + v(2,0,1)n + u(2,0,1)p - u(2,0,1)n <= 36
MCLinV(0,2,2):  - x(0,2) + v(0,2,2)p - v(0,2,2)n + x(2,2) = -6
MCLinV(2,0,2):  x(0,2) + v(2,0,2)p - v(2,0,2)n - x(2,2) = -7
MCLin1(0,2,2):  u(0,2,2)p - u(0,2,2)n >= 0
MCLin2(0,2,2):  35 y(2,0,2) + u(0,2,2)p - u(0,2,2)n >= 0
MCLin3(0,2,2):  -23 y(2,0,2) - v(0,2,2)p + v(0,2,2)n + u(0,2,2)p - u(0,2,2)n >= -23
MCLin4(0,2,2):  -23 y(2,0,2) + u(0,2,2)p - u(0,2,2)n <= 0
MCLin5(0,2,2):  35 y(2,0,2) - v(0,2,2)p + v(0,2,2)n + u(0,2,2)p - u(0,2,2)n <= 35
MCLin6(2,0,2):  u(2,0,2)p - u(2,0,2)n >= 0
MCLin7(2,0,2):  36 y(0,2,2) + u(2,0,2)p - u(2,0,2)n >= 0
MCLin8(2,0,2):  -22 y(0,2,2) - v(2,0,2)p + v(2,0,2)n + u(2,0,2)p - u(2,0,2)n >= -22
MCLin9(2,0,2):  -22 y(0,2,2) + u(2,0,2)p - u(2,0,2)n <= 0
MCLin10(2,0,2):  36 y(0,2,2) - v(2,0,2)p + v(2,0,2)n + u(2,0,2)p - u(2,0,2)n <= 36
MCLinV(1,2,0):  - x(1,0) + v(1,2,0)p - v(1,2,0)n + x(2,0) = -2
MCLinV(2,1,0):  x(1,0) + v(2,1,0)p - v(2,1,0)n - x(2,0) = -3
MCLin1(1,2,0):  u(1,2,0)p - u(1,2,0)n >= 0
MCLin2(1,2,0):  40 y(2,1,0) + u(1,2,0)p - u(1,2,0)n >= 0
MCLin3(1,2,0):  -19 y(2,1,0) - v(1,2,0)p + v(1,2,0)n + u(1,2,0)p - u(1,2,0)n >= -19
MCLin4(1,2,0):  -19 y(2,1,0) + u(1,2,0)p - u(1,2,0)n <= 0
MCLin5(1,2,0):  40 y(2,1,0) - v(1,2,0)p + v(1,2,0)n + u(1,2,0)p - u(1,2,0)n <= 40
MCLin6(2,1,0):  u(2,1,0)p - u(2,1,0)n >= 0
MCLin7(2,1,0):  24 y(1,2,0) + u(2,1,0)p - u(2,1,0)n >= 0
MCLin8(2,1,0):  -35 y(1,2,0) - v(2,1,0)p + v(2,1,0)n + u(2,1,0)p - u(2,1,0)n >= -35
MCLin9(2,1,0):  -35 y(1,2,0) + u(2,1,0)p - u(2,1,0)n <= 0
MCLin10(2,1,0):  24 y(1,2,0) - v(2,1,0)p + v(2,1,0)n + u(2,1,0)p - u(2,1,0)n <= 24
MCLinV(1,2,1):  - x(1,1) + v(1,2,1)p - v(1,2,1)n + x(2,1) = -7
MCLinV(2,1,1):  x(1,1) + v(2,1,1)p - v(2,1,1)n - x(2,1) = -4
MCLin1(1,2,1):  u(1,2,1)p - u(1,2,1)n >= 0
MCLin2(1,2,1):  36 y(2,1,1) + u(1,2,1)p - u(1,2,1)n >= 0
MCLin3(1,2,1):  -23 y(2,1,1) - v(1,2,1)p + v(1,2,1)n + u(1,2,1)p - u(1,2,1)n >= -23
MCLin4(1,2,1):  -23 y(2,1,1) + u(1,2,1)p - u(1,2,1)n <= 0
MCLin5(1,2,1):  36 y(2,1,1) - v(1,2,1)p + v(1,2,1)n + u(1,2,1)p - u(1,2,1)n <= 36
MCLin6(2,1,1):  u(2,1,1)p - u(2,1,1)n >= 0
MCLin7(2,1,1):  34 y(1,2,1) + u(2,1,1)p - u(2,1,1)n >= 0
MCLin8(2,1,1):  -25 y(1,2,1) - v(2,1,1)p + v(2,1,1)n + u(2,1,1)p - u(2,1,1)n >= -25
MCLin9(2,1,1):  -25 y(1,2,1) + u(2,1,1)p - u(2,1,1)n <= 0
MCLin10(2,1,1):  34 y(1,2,1) - v(2,1,1)p + v(2,1,1)n + u(2,1,1)p - u(2,1,1)n <= 34
MCLinV(1,2,2):  - x(1,2) + v(1,2,2)p - v(1,2,2)n + x(2,2) = -6
MCLinV(2,1,2):  x(1,2) + v(2,1,2)p - v(2,1,2)n - x(2,2) = -7
MCLin1(1,2,2):  u(1,2,2)p - u(1,2,2)n >= 0
MCLin2(1,2,2):  35 y(2,1,2) + u(1,2,2)p - u(1,2,2)n >= 0
MCLin3(1,2,2):  -24 y(2,1,2) - v(1,2,2)p + v(1,2,2)n + u(1,2,2)p - u(1,2,2)n >= -24
MCLin4(1,2,2):  -24 y(2,1,2) + u(1,2,2)p - u(1,2,2)n <= 0
MCLin5(1,2,2):  35 y(2,1,2) - v(1,2,2)p + v(1,2,2)n + u(1,2,2)p - u(1,2,2)n <= 35
MCLin6(2,1,2):  u(2,1,2)p - u(2,1,2)n >= 0
MCLin7(2,1,2):  37 y(1,2,2) + u(2,1,2)p - u(2,1,2)n >= 0
MCLin8(2,1,2):  -22 y(1,2,2) - v(2,1,2)p + v(2,1,2)n + u(2,1,2)p - u(2,1,2)n >= -22
MCLin9(2,1,2):  -22 y(1,2,2) + u(2,1,2)p - u(2,1,2)n <= 0
MCLin10(2,1,2):  37 y(1,2,2) - v(2,1,2)p + v(2,1,2)n + u(2,1,2)p - u(2,1,2)n <= 37
makespan(0):  C - x(0,0) >= 1
makespan(1):  C - x(1,2) >= 7
makespan(2):  C - x(2,0) >= 2
cut_clique_1(0,0):  0.01089 x(0,0) + 0.06470 x(2,0) >= 1
cut_clique_1(1,0):  0.01122 x(0,0) + 0.06470 x(2,0) >= 1
cut_clique_1(2,0):  0.01223 x(0,0) + 0.06317 x(2,0) >= 1
cut_clique_1(3,0):  0.01247 x(0,0) + 0.06317 x(2,0) >= 1
cut_clique_1(4,0):  0.01276 x(0,0) + 0.06317 x(2,0) >= 1
cut_clique_1(0,1):  0.97691 x(0,1) + 0.22472 x(1,1) + 0.93065 x(2,1) >= 1
cut_clique_1(1,1):  0.93004 x(0,1) + 0.24222 x(1,1) + 0.99005 x(2,1) >= 1
cut_clique_1(2,1):  0.98629 x(0,1) + 0.38911 x(1,1) + 0.98751 x(2,1) >= 1
cut_clique_1(3,1):  0.96695 x(0,1) + 0.35093 x(1,1) + 0.98751 x(2,1) >= 1
cut_clique_1(4,1):  0.96695 x(0,1) + 0.27902 x(1,1) + 0.97774 x(2,1) >= 1
cut_clique_1(5,1):  0.96695 x(0,1) + 0.39304 x(1,1) + 0.98751 x(2,1) >= 1
cut_clique_1(6,1):  0.98629 x(0,1) + 0.43775 x(1,1) + 0.99739 x(2,1) >= 1
cut_clique_1(7,1):  0.97691 x(0,1) + 0.18534 x(1,1) + 0.94926 x(2,1) >= 1
cut_clique_1(8,1):  0.98629 x(0,1) + 0.64767 x(1,1) + 0.99739 x(2,1) >= 1
cut_clique_1(9,1):  0.98629 x(0,1) + 0.79695 x(1,1) + 0.99739 x(2,1) >= 1
cut_clique_1(10,1):  0.98629 x(0,1) + 0.42112 x(1,1) + 0.99739 x(2,1) >= 1
cut_clique_1(11,1):  0.98629 x(0,1) + 0.49960 x(1,1) + 0.99739 x(2,1) >= 1
cut_clique_1(12,1):  0.98629 x(0,1) + 0.63497 x(1,1) + 0.99739 x(2,1) >= 1
cut_clique_1(13,1):  0.98668 x(0,1) + 0.19917 x(1,1) + 0.97774 x(2,1) >= 1
cut_clique_1(14,1):  0.98668 x(0,1) + 0.23042 x(1,1) + 0.97774 x(2,1) >= 1
cut_clique_1(15,1):  0.97691 x(0,1) + 0.18534 x(1,1) + 0.93065 x(2,1) >= 1
cut_clique_1(16,1):  0.98629 x(0,1) + 0.36619 x(1,1) + 0.99739 x(2,1) >= 1
cut_clique_1(17,1):  0.97691 x(0,1) + 0.20758 x(1,1) + 0.94926 x(2,1) >= 1
cut_clique_1(18,1):  0.97691 x(0,1) + 0.20225 x(1,1) + 0.93065 x(2,1) >= 1
cut_clique_1(19,1):  0.98629 x(0,1) + 0.54457 x(1,1) + 0.99739 x(2,1) >= 1
cut_clique_1(20,1):  0.98629 x(0,1) + 0.37366 x(1,1) + 0.99739 x(2,1) >= 1
cut_clique_1(21,1):  0.96724 x(0,1) + 0.23907 x(1,1) + 0.99005 x(2,1) >= 1
cut_clique_1(22,1):  0.93004 x(0,1) + 0.22768 x(1,1) + 0.99005 x(2,1) >= 1
cut_clique_1(23,1):  0.98629 x(0,1) + 0.69300 x(1,1) + 0.99739 x(2,1) >= 1
cut_clique_1(24,1):  0.93004 x(0,1) + 0.23907 x(1,1) + 0.99005 x(2,1) >= 1
cut_clique_1(25,1):  0.98668 x(0,1) + 0.20714 x(1,1) + 0.97774 x(2,1) >= 1
cut_clique_1(26,1):  0.98629 x(0,1) + 0.38911 x(1,1) + 0.99739 x(2,1) >= 1
cut_clique_1(27,1):  0.98668 x(0,1) + 0.22371 x(1,1) + 0.97774 x(2,1) >= 1
cut_clique_1(28,1):  0.96724 x(0,1) + 0.23907 x(1,1) + 0.93065 x(2,1) >= 1
cut_clique_1(29,1):  0.96695 x(0,1) + 0.31056 x(1,1) + 0.98751 x(2,1) >= 1
cut_clique_1(30,1):  0.98629 x(0,1) + 0.39304 x(1,1) + 0.98751 x(2,1) >= 1
cut_clique_1(31,1):  0.98668 x(0,1) + 0.27902 x(1,1) + 0.97774 x(2,1) >= 1
cut_clique_1(32,1):  0.99615 x(0,1) + 0.98982 x(1,1) + 0.99739 x(2,1) >= 1
cut_clique_1(33,1):  0.97691 x(0,1) + 0.20758 x(1,1) + 0.97774 x(2,1) >= 1
cut_clique_1(34,1):  0.98629 x(0,1) + 0.59903 x(1,1) + 0.99739 x(2,1) >= 1
cut_clique_1(35,1):  0.97691 x(0,1) + 0.20965 x(1,1) + 0.97774 x(2,1) >= 1
cut_clique_1(36,1):  0.96724 x(0,1) + 0.22472 x(1,1) + 0.93065 x(2,1) >= 1
cut_clique_1(37,1):  0.96695 x(0,1) + 0.28929 x(1,1) + 0.98751 x(2,1) >= 1
cut_clique_1(38,1):  0.98629 x(0,1) + 0.91650 x(1,1) + 0.99739 x(2,1) >= 1
cut_clique_1(39,1):  0.96695 x(0,1) + 0.32690 x(1,1) + 0.98751 x(2,1) >= 1
cut_clique_1(40,1):  0.98668 x(0,1) + 0.26323 x(1,1) + 0.97774 x(2,1) >= 1
cut_clique_1(41,1):  0.98629 x(0,1) + 0.98982 x(1,1) + 0.99739 x(2,1) >= 1
cut_clique_1(42,1):  0.96695 x(0,1) + 0.28929 x(1,1) + 0.97774 x(2,1) >= 1
cut_clique_1(43,1):  0.96695 x(0,1) + 0.26786 x(1,1) + 0.97774 x(2,1) >= 1
cut_clique_1(44,1):  0.98629 x(0,1) + 0.44217 x(1,1) + 0.99739 x(2,1) >= 1
cut_clique_1(45,1):  0.98629 x(0,1) + 0.49466 x(1,1) + 0.99739 x(2,1) >= 1
cut_clique_1(46,1):  0.98629 x(0,1) + 0.37744 x(1,1) + 0.99739 x(2,1) >= 1
cut_clique_1(47,1):  0.97691 x(0,1) + 0.19917 x(1,1) + 0.97774 x(2,1) >= 1
cut_clique_1(48,1):  0.98668 x(0,1) + 0.23503 x(1,1) + 0.97774 x(2,1) >= 1
cut_clique_1(49,1):  0.99615 x(0,1) + 0.99972 x(1,1) + 0.99739 x(2,1) >= 1
cut_clique_1(0,2):  0.13096 x(0,2) + 0.00792 x(2,2) >= 1
cut_clique_1(1,2):  0.13096 x(0,2) + 0.00816 x(2,2) >= 1
cut_clique_1(2,2):  0.12703 x(0,2) + 0.00816 x(2,2) >= 1
cut_clique_1(3,2):  0.12703 x(0,2) + 0.00832 x(2,2) >= 1
cut_clique_1(4,2):  0.12703 x(0,2) + 0.00957 x(2,2) >= 1
cut_clique_1(5,2):  0.12703 x(0,2) + 0.00852 x(2,2) >= 1
cut_clique_1(6,2):  0.12703 x(0,2) + 0.00844 x(2,2) >= 1
cut_clique_1(7,2):  0.12703 x(0,2) + 0.00835 x(2,2) >= 1
cut_clique_1(8,2):  0.12703 x(0,2) + 0.00793 x(2,2) >= 1
cut_clique_1(9,2):  0.12703 x(0,2) + 0.00801 x(2,2) >= 1
cut_clique_1(10,2):  0.12703 x(0,2) + 0.00793 x(2,2) >= 1
cut_clique_2(0,1):  0.07334 x(0,1) + 0.03696 x(1,1) + 0.07589 x(2,1) >= 1
cut_clique_2(1,1):  0.07437 x(0,1) + 0.03811 x(1,1) + 0.07564 x(2,1) >= 1
cut_clique_2(2,1):  0.08562 x(0,1) + 0.03864 x(1,1) + 0.06956 x(2,1) >= 1
cut_clique_2(3,1):  0.07363 x(0,1) + 0.03658 x(1,1) + 0.08583 x(2,1) >= 1
cut_clique_2(4,1):  0.06922 x(0,1) + 0.03976 x(1,1) + 0.07939 x(2,1) >= 1
cut_clique_2(5,1):  0.07512 x(0,1) + 0.03621 x(1,1) + 0.07117 x(2,1) >= 1
cut_clique_2(6,1):  0.07464 x(0,1) + 0.03532 x(1,1) + 0.07589 x(2,1) >= 1
cut_clique_2(7,1):  0.08017 x(0,1) + 0.03396 x(1,1) + 0.07589 x(2,1) >= 1
cut_clique_2(8,1):  0.07511 x(0,1) + 0.03548 x(1,1) + 0.08583 x(2,1) >= 1
cut_clique_2(9,1):  0.08562 x(0,1) + 0.03903 x(1,1) + 0.07326 x(2,1) >= 1
cut_clique_2(10,1):  0.08265 x(0,1) + 0.03430 x(1,1) + 0.07589 x(2,1) >= 1
cut_clique_2(11,1):  0.07334 x(0,1) + 0.03659 x(1,1) + 0.09182 x(2,1) >= 1
cut_clique_2(12,1):  0.07464 x(0,1) + 0.03496 x(1,1) + 0.07876 x(2,1) >= 1
cut_clique_2(13,1):  0.07363 x(0,1) + 0.04057 x(1,1) + 0.07025 x(2,1) >= 1
cut_clique_2(14,1):  0.07363 x(0,1) + 0.03658 x(1,1) + 0.07947 x(2,1) >= 1
cut_clique_2(15,1):  0.07511 x(0,1) + 0.03903 x(1,1) + 0.07553 x(2,1) >= 1
cut_clique_2(16,1):  0.07464 x(0,1) + 0.03532 x(1,1) + 0.07437 x(2,1) >= 1
cut_clique_2(17,1):  0.07464 x(0,1) + 0.03496 x(1,1) + 0.07564 x(2,1) >= 1
cut_clique_2(18,1):  0.07512 x(0,1) + 0.03621 x(1,1) + 0.07337 x(2,1) >= 1
cut_clique_2(19,1):  0.08265 x(0,1) + 0.03363 x(1,1) + 0.07589 x(2,1) >= 1
cut_clique_2(20,1):  0.07464 x(0,1) + 0.03496 x(1,1) + 0.07719 x(2,1) >= 1
cut_clique_2(21,1):  0.07061 x(0,1) + 0.03621 x(1,1) + 0.07187 x(2,1) >= 1
cut_clique_2(22,1):  0.08017 x(0,1) + 0.03430 x(1,1) + 0.07589 x(2,1) >= 1
cut_clique_2(23,1):  0.08562 x(0,1) + 0.03864 x(1,1) + 0.06887 x(2,1) >= 1
cut_clique_2(24,1):  0.07061 x(0,1) + 0.03621 x(1,1) + 0.07260 x(2,1) >= 1
cut_clique_2(25,1):  0.07464 x(0,1) + 0.03532 x(1,1) + 0.07501 x(2,1) >= 1
cut_clique_2(26,1):  0.07857 x(0,1) + 0.03396 x(1,1) + 0.07589 x(2,1) >= 1
cut_clique_2(27,1):  0.07334 x(0,1) + 0.03659 x(1,1) + 0.07989 x(2,1) >= 1
cut_clique_2(28,1):  0.07437 x(0,1) + 0.03811 x(1,1) + 0.07337 x(2,1) >= 1
cut_clique_2(29,1):  0.07061 x(0,1) + 0.03621 x(1,1) + 0.07259 x(2,1) >= 1
cut_clique_2(30,1):  0.07464 x(0,1) + 0.03532 x(1,1) + 0.07586 x(2,1) >= 1
cut_clique_2(31,1):  0.07857 x(0,1) + 0.03532 x(1,1) + 0.07589 x(2,1) >= 1
cut_clique_2(32,1):  0.07464 x(0,1) + 0.03532 x(1,1) + 0.07283 x(2,1) >= 1
cut_clique_2(33,1):  0.07512 x(0,1) + 0.03621 x(1,1) + 0.07260 x(2,1) >= 1
cut_clique_2(34,1):  0.07464 x(0,1) + 0.03811 x(1,1) + 0.07564 x(2,1) >= 1
cut_clique_2(35,1):  0.07363 x(0,1) + 0.04057 x(1,1) + 0.07939 x(2,1) >= 1
cut_clique_2(36,1):  0.07016 x(0,1) + 0.03811 x(1,1) + 0.07564 x(2,1) >= 1
cut_clique_2(37,1):  0.07061 x(0,1) + 0.03621 x(1,1) + 0.07114 x(2,1) >= 1
cut_clique_2(38,1):  0.07821 x(0,1) + 0.03432 x(1,1) + 0.09129 x(2,1) >= 1
cut_clique_2(39,1):  0.08434 x(0,1) + 0.03363 x(1,1) + 0.07589 x(2,1) >= 1
cut_clique_2(40,1):  0.08562 x(0,1) + 0.03903 x(1,1) + 0.06887 x(2,1) >= 1
cut_clique_2(41,1):  0.06922 x(0,1) + 0.03856 x(1,1) + 0.09129 x(2,1) >= 1
cut_clique_2(42,1):  0.07363 x(0,1) + 0.03548 x(1,1) + 0.08583 x(2,1) >= 1
cut_clique_2(43,1):  0.07334 x(0,1) + 0.03659 x(1,1) + 0.08582 x(2,1) >= 1
cut_clique_2(44,1):  0.06922 x(0,1) + 0.04057 x(1,1) + 0.07939 x(2,1) >= 1
cut_clique_2(45,1):  0.07508 x(0,1) + 0.03432 x(1,1) + 0.09129 x(2,1) >= 1
cut_clique_2(46,1):  0.07464 x(0,1) + 0.03496 x(1,1) + 0.07501 x(2,1) >= 1
cut_clique_2(47,1):  0.08434 x(0,1) + 0.03696 x(1,1) + 0.07589 x(2,1) >= 1
cut_clique_2(48,1):  0.07437 x(0,1) + 0.03621 x(1,1) + 0.07337 x(2,1) >= 1
cut_clique_2(49,1):  0.07334 x(0,1) + 0.03659 x(1,1) + 0.07589 x(2,1) >= 1
Bounds
 0 <= C <= 44
 14 <= x(0,0) <= 43
 0 <= y(0,1,0) <= 1
 0 <= y(1,0,0) <= 1
 0 <= v(0,1,0)p <= 36
 0 <= v(0,1,0)n <= 23
 0 <= v(1,0,0)p <= 19
 0 <= v(1,0,0)n <= 40
 0 <= u(0,1,0)p <= 440
 0 <= u(0,1,0)n <= 440
 0 <= u(1,0,0)p <= 440
 0 <= u(1,0,0)n <= 440
 0 <= y(0,2,0) <= 1
 0 <= y(2,0,0) <= 1
 0 <= v(0,2,0)p <= 28
 0 <= v(0,2,0)n <= 30
 0 <= v(2,0,0)p <= 27
 0 <= v(2,0,0)n <= 31
 0 <= u(0,2,0)p <= 440
 0 <= u(0,2,0)n <= 440
 0 <= u(2,0,0)p <= 440
 0 <= u(2,0,0)n <= 440
 4 <= x(1,0) <= 34
 0 <= y(1,2,0) <= 1
 0 <= y(2,1,0) <= 1
 0 <= v(1,2,0)p <= 19
 0 <= v(1,2,0)n <= 40
 0 <= v(2,1,0)p <= 35
 0 <= v(2,1,0)n <= 24
 0 <= u(1,2,0)p <= 440
 0 <= u(1,2,0)n <= 440
 0 <= u(2,1,0)p <= 440
 0 <= u(2,1,0)n <= 440
 13 <= x(2,0) <= 42
 0 <= x(0,1) <= 29
 0 <= y(0,1,1) <= 1
 0 <= y(1,0,1) <= 1
 0 <= v(0,1,1)p <= 25
 0 <= v(0,1,1)n <= 34
 0 <= v(1,0,1)p <= 23
 0 <= v(1,0,1)n <= 36
 0 <= u(0,1,1)p <= 440
 0 <= u(0,1,1)n <= 440
 0 <= u(1,0,1)p <= 440
 0 <= u(1,0,1)n <= 440
 0 <= y(0,2,1) <= 1
 0 <= y(2,0,1) <= 1
 0 <= v(0,2,1)p <= 22
 0 <= v(0,2,1)n <= 36
 0 <= v(2,0,1)p <= 22
 0 <= v(2,0,1)n <= 36
 0 <= u(0,2,1)p <= 440
 0 <= u(0,2,1)n <= 440
 0 <= u(2,0,1)p <= 440
 0 <= u(2,0,1)n <= 440
 0 <= x(1,1) <= 30
 0 <= y(1,2,1) <= 1
 0 <= y(2,1,1) <= 1
 0 <= v(1,2,1)p <= 23
 0 <= v(1,2,1)n <= 36
 0 <= v(2,1,1)p <= 25
 0 <= v(2,1,1)n <= 34
 0 <= u(1,2,1)p <= 440
 0 <= u(1,2,1)n <= 440
 0 <= u(2,1,1)p <= 440
 0 <= u(2,1,1)n <= 440
 0 <= x(2,1) <= 29
 7 <= x(0,2) <= 36
 0 <= y(0,1,2) <= 1
 0 <= y(1,0,2) <= 1
 0 <= v(0,1,2)p <= 22
 0 <= v(0,1,2)n <= 37
 0 <= v(1,0,2)p <= 23
 0 <= v(1,0,2)n <= 36
 0 <= u(0,1,2)p <= 440
 0 <= u(0,1,2)n <= 440
 0 <= u(1,0,2)p <= 440
 0 <= u(1,0,2)n <= 440
 0 <= y(0,2,2) <= 1
 0 <= y(2,0,2) <= 1
 0 <= v(0,2,2)p <= 23
 0 <= v(0,2,2)n <= 35
 0 <= v(2,0,2)p <= 22
 0 <= v(2,0,2)n <= 36
 0 <= u(0,2,2)p <= 440
 0 <= u(0,2,2)n <= 440
 0 <= u(2,0,2)p <= 440
 0 <= u(2,0,2)n <= 440
 7 <= x(1,2) <= 37
 0 <= y(1,2,2) <= 1
 0 <= y(2,1,2) <= 1
 0 <= v(1,2,2)p <= 24
 0 <= v(1,2,2)n <= 35
 0 <= v(2,1,2)p <= 22
 0 <= v(2,1,2)n <= 37
 0 <= u(1,2,2)p <= 440
 0 <= u(1,2,2)n <= 440
 0 <= u(2,1,2)p <= 440
 0 <= u(2,1,2)n <= 440
 7 <= x(2,2) <= 36
End
